p cnf 128 328
1 2 3 126 0
126 4 5 0
-1 -2 0
-1 -3 0
-1 -4 0
-1 -5 0
-2 -3 0
-2 -4 0
-2 -5 0
-3 -4 0
-3 -5 0
-4 -5 0
6 7 8 127 0
127 9 10 0
-6 -7 0
-6 -8 0
-6 -9 0
-6 -10 0
-7 -8 0
-7 -9 0
-7 -10 0
-8 -9 0
-8 -10 0
-9 -10 0
11 12 13 128 0
128 14 15 0
-11 -12 0
-11 -13 0
-11 -14 0
-11 -15 0
-12 -13 0
-12 -14 0
-12 -15 0
-13 -14 0
-13 -15 0
-14 -15 0
16 17 18 129 0
129 19 20 0
-16 -17 0
-16 -18 0
-16 -19 0
-16 -20 0
-17 -18 0
-17 -19 0
-17 -20 0
-18 -19 0
-18 -20 0
-19 -20 0
21 22 23 130 0
130 24 25 0
-21 -22 0
-21 -23 0
-21 -24 0
-21 -25 0
-22 -23 0
-22 -24 0
-22 -25 0
-23 -24 0
-23 -25 0
-24 -25 0
26 27 28 131 0
131 29 30 0
-26 -27 0
-26 -28 0
-26 -29 0
-26 -30 0
-27 -28 0
-27 -29 0
-27 -30 0
-28 -29 0
-28 -30 0
-29 -30 0
31 32 33 132 0
132 34 35 0
-31 -32 0
-31 -33 0
-31 -34 0
-31 -35 0
-32 -33 0
-32 -34 0
-32 -35 0
-33 -34 0
-33 -35 0
-34 -35 0
36 37 38 133 0
133 39 40 0
-36 -37 0
-36 -38 0
-36 -39 0
-36 -40 0
-37 -38 0
-37 -39 0
-37 -40 0
-38 -39 0
-38 -40 0
-39 -40 0
41 42 43 134 0
134 44 45 0
-41 -42 0
-41 -43 0
-41 -44 0
-41 -45 0
-42 -43 0
-42 -44 0
-42 -45 0
-43 -44 0
-43 -45 0
-44 -45 0
46 47 48 135 0
135 49 50 0
-46 -47 0
-46 -48 0
-46 -49 0
-46 -50 0
-47 -48 0
-47 -49 0
-47 -50 0
-48 -49 0
-48 -50 0
-49 -50 0
51 52 53 136 0
136 54 55 0
-51 -52 0
-51 -53 0
-51 -54 0
-51 -55 0
-52 -53 0
-52 -54 0
-52 -55 0
-53 -54 0
-53 -55 0
-54 -55 0
56 57 58 137 0
137 59 60 0
-56 -57 0
-56 -58 0
-56 -59 0
-56 -60 0
-57 -58 0
-57 -59 0
-57 -60 0
-58 -59 0
-58 -60 0
-59 -60 0
61 62 63 138 0
138 64 65 0
-61 -62 0
-61 -63 0
-61 -64 0
-61 -65 0
-62 -63 0
-62 -64 0
-62 -65 0
-63 -64 0
-63 -65 0
-64 -65 0
66 67 68 139 0
139 69 70 0
-66 -67 0
-66 -68 0
-66 -69 0
-66 -70 0
-67 -68 0
-67 -69 0
-67 -70 0
-68 -69 0
-68 -70 0
-69 -70 0
71 72 73 140 0
140 74 75 0
-71 -72 0
-71 -73 0
-71 -74 0
-71 -75 0
-72 -73 0
-72 -74 0
-72 -75 0
-73 -74 0
-73 -75 0
-74 -75 0
76 77 78 141 0
141 79 80 0
-76 -77 0
-76 -78 0
-76 -79 0
-76 -80 0
-77 -78 0
-77 -79 0
-77 -80 0
-78 -79 0
-78 -80 0
-79 -80 0
81 82 83 142 0
142 84 85 0
-81 -82 0
-81 -83 0
-81 -84 0
-81 -85 0
-82 -83 0
-82 -84 0
-82 -85 0
-83 -84 0
-83 -85 0
-84 -85 0
86 87 88 143 0
143 89 90 0
-86 -87 0
-86 -88 0
-86 -89 0
-86 -90 0
-87 -88 0
-87 -89 0
-87 -90 0
-88 -89 0
-88 -90 0
-89 -90 0
91 92 93 144 0
144 94 95 0
-91 -92 0
-91 -93 0
-91 -94 0
-91 -95 0
-92 -93 0
-92 -94 0
-92 -95 0
-93 -94 0
-93 -95 0
-94 -95 0
96 97 98 145 0
145 99 100 0
-96 -97 0
-96 -98 0
-96 -99 0
-96 -100 0
-97 -98 0
-97 -99 0
-97 -100 0
-98 -99 0
-98 -100 0
-99 -100 0
101 102 103 146 0
146 104 105 0
-101 -102 0
-101 -103 0
-101 -104 0
-101 -105 0
-102 -103 0
-102 -104 0
-102 -105 0
-103 -104 0
-103 -105 0
-104 -105 0
106 107 108 147 0
147 109 110 0
-106 -107 0
-106 -108 0
-106 -109 0
-106 -110 0
-107 -108 0
-107 -109 0
-107 -110 0
-108 -109 0
-108 -110 0
-109 -110 0
111 112 113 148 0
148 114 115 0
-111 -112 0
-111 -113 0
-111 -114 0
-111 -115 0
-112 -113 0
-112 -114 0
-112 -115 0
-113 -114 0
-113 -115 0
-114 -115 0
116 117 118 149 0
149 119 120 0
-116 -117 0
-116 -118 0
-116 -119 0
-116 -120 0
-117 -118 0
-117 -119 0
-117 -120 0
-118 -119 0
-118 -120 0
-119 -120 0
121 122 123 150 0
150 124 125 0
-121 -122 0
-121 -123 0
-121 -124 0
-121 -125 0
-122 -123 0
-122 -124 0
-122 -125 0
-123 -124 0
-123 -125 0
-124 -125 0
1 6 11 151 0
151 16 21 0
26 31 36 152 0
152 41 46 0
51 56 61 153 0
153 66 71 0
76 81 86 154 0
154 91 96 0
101 106 111 155 0
155 116 121 0
1 26 51 156 0
156 76 101 0
6 31 56 157 0
157 81 106 0
11 36 61 158 0
158 86 111 0
16 41 66 159 0
159 91 116 0
21 46 71 160 0
160 96 121 0
2 7 12 161 0
161 17 22 0
27 32 37 162 0
162 42 47 0
52 57 62 163 0
163 67 72 0
77 82 87 164 0
164 92 97 0
102 107 112 165 0
165 117 122 0
2 27 52 166 0
166 77 102 0
7 32 57 167 0
167 82 107 0
12 37 62 168 0
168 87 112 0
17 42 67 169 0
169 92 117 0
22 47 72 170 0
170 97 122 0
3 8 13 171 0
171 18 23 0
28 33 38 172 0
172 43 48 0
53 58 63 173 0
173 68 73 0
78 83 88 174 0
174 93 98 0
103 108 113 175 0
175 118 123 0
3 28 53 176 0
176 78 103 0
8 33 58 177 0
177 83 108 0
13 38 63 178 0
178 88 113 0
18 43 68 179 0
179 93 118 0
23 48 73 180 0
180 98 123 0
4 9 14 181 0
181 19 24 0
29 34 39 182 0
182 44 49 0
54 59 64 183 0
183 69 74 0
79 84 89 184 0
184 94 99 0
104 109 114 185 0
185 119 124 0
4 29 54 186 0
186 79 104 0
9 34 59 187 0
187 84 109 0
14 39 64 188 0
188 89 114 0
19 44 69 189 0
189 94 119 0
24 49 74 190 0
190 99 124 0
5 10 15 191 0
191 20 25 0
30 35 40 192 0
192 45 50 0
55 60 65 193 0
193 70 75 0
80 85 90 194 0
194 95 100 0
105 110 115 195 0
195 120 125 0
5 30 55 196 0
196 80 105 0
10 35 60 197 0
197 85 110 0
15 40 65 198 0
198 90 115 0
20 45 70 199 0
199 95 120 0
25 50 75 200 0
200 100 125 0
5 0
7 0
102 0
